p tw 75 2510
0 1
0 2
0 3
0 4
0 5
0 6
0 7
0 8
0 9
0 10
0 11
0 12
0 13
0 14
0 15
0 21
0 23
0 24
0 27
0 28
0 34
0 38
0 49
0 51
0 59
0 60
0 61
0 62
0 16
0 17
0 19
0 22
0 32
0 43
0 48
0 52
0 53
0 58
0 63
0 64
0 68
0 29
0 39
0 45
0 46
0 65
0 69
0 72
0 73
0 18
0 20
0 26
0 56
0 57
0 67
0 30
0 31
0 36
0 40
0 41
0 50
0 55
0 71
0 74
0 25
0 54
0 42
0 44
0 66
0 35
1 2
1 3
1 4
1 5
1 6
1 7
1 8
1 9
1 10
1 11
1 12
1 13
1 14
1 15
1 17
1 33
1 34
1 36
1 37
1 39
1 40
1 41
1 42
1 43
1 44
1 45
1 46
1 47
1 16
1 20
1 21
1 28
1 29
1 48
1 49
1 50
1 51
1 52
1 53
1 54
1 18
1 25
1 30
1 35
1 55
1 56
1 57
1 58
1 23
1 26
1 31
1 63
1 64
1 65
1 19
1 66
1 69
1 70
1 71
1 62
1 67
1 74
1 27
1 59
1 61
1 68
1 72
1 22
1 24
1 32
1 38
1 60
2 3
2 4
2 5
2 6
2 7
2 8
2 9
2 10
2 11
2 12
2 13
2 14
2 15
2 16
2 17
2 18
2 19
2 20
2 21
2 22
2 23
2 24
2 25
2 26
2 27
2 28
2 33
2 34
2 36
2 37
2 39
2 40
2 41
2 42
2 43
2 44
2 45
2 46
2 47
2 38
2 49
2 51
2 59
2 60
2 61
2 62
2 32
2 48
2 52
2 53
2 58
2 63
2 64
2 68
2 66
2 69
2 70
2 71
2 29
2 56
2 72
2 30
2 31
2 35
2 50
2 55
2 74
2 57
2 65
2 73
3 4
3 5
3 6
3 7
3 8
3 9
3 10
3 11
3 12
3 13
3 14
3 15
3 21
3 22
3 29
3 32
3 43
3 47
3 56
3 60
3 62
3 70
3 71
3 72
3 20
3 27
3 44
3 50
3 51
3 54
3 57
3 59
3 61
3 65
3 68
3 69
3 17
3 30
3 31
3 46
3 53
3 55
3 63
3 73
3 74
3 18
3 25
3 34
3 36
3 16
3 28
3 40
3 42
3 66
3 67
3 19
3 23
3 41
3 58
3 64
3 37
3 45
3 33
3 39
3 38
3 48
3 24
3 52
4 5
4 6
4 7
4 8
4 9
4 10
4 11
4 12
4 13
4 14
4 15
4 17
4 33
4 34
4 36
4 37
4 39
4 40
4 41
4 42
4 43
4 44
4 45
4 46
4 47
4 21
4 22
4 29
4 32
4 56
4 60
4 62
4 70
4 71
4 72
4 16
4 19
4 24
4 27
4 57
4 59
4 61
4 66
4 18
4 25
4 53
4 54
4 69
4 48
4 50
4 51
4 52
4 55
4 64
4 30
4 31
4 38
4 58
4 74
5 6
5 7
5 8
5 9
5 10
5 11
5 12
5 13
5 14
5 15
5 17
5 33
5 34
5 36
5 37
5 39
5 40
5 41
5 42
5 43
5 44
5 45
5 46
5 47
5 21
5 23
5 26
5 30
5 31
5 52
5 53
5 55
5 63
5 64
5 65
5 22
5 24
5 32
5 38
5 56
5 58
5 59
5 62
5 16
5 19
5 48
5 51
5 68
5 28
5 29
5 69
5 72
5 73
5 27
5 57
5 61
5 66
5 20
5 25
5 18
5 67
5 71
5 54
5 35
6 7
6 8
6 9
6 10
6 11
6 12
6 13
6 14
6 15
6 21
6 22
6 29
6 32
6 43
6 47
6 56
6 60
6 62
6 70
6 71
6 72
6 17
6 18
6 25
6 35
6 37
6 38
6 41
6 42
6 46
6 63
6 65
6 67
6 28
6 36
6 50
6 57
6 59
6 64
7 8
7 9
7 10
7 11
7 12
7 13
7 14
7 15
7 16
7 17
7 18
7 19
7 20
7 21
7 22
7 23
7 24
7 25
7 26
7 27
7 28
7 34
7 38
7 49
7 51
7 59
7 60
7 61
7 62
7 31
7 32
7 45
7 46
7 56
7 58
7 29
7 33
7 35
7 43
7 50
7 54
7 67
7 68
7 69
7 39
7 44
7 66
7 70
7 71
7 52
7 53
7 55
7 36
7 37
7 40
7 63
7 72
7 30
7 41
7 73
7 74
7 57
7 42
7 65
7 47
8 9
8 10
8 11
8 12
8 13
8 14
8 15
8 16
8 19
8 24
8 28
8 29
8 39
8 45
8 46
8 51
8 59
8 65
8 69
8 72
8 73
8 27
8 33
8 34
8 37
8 56
8 57
8 61
8 62
8 66
8 17
8 30
8 31
8 53
8 55
8 63
8 71
8 74
8 20
8 21
8 36
8 38
8 48
8 54
8 18
8 32
8 35
8 40
8 42
8 43
8 50
8 23
8 26
8 67
8 70
8 41
8 58
8 64
9 10
9 11
9 12
9 13
9 14
9 15
9 17
9 18
9 21
9 25
9 30
9 35
9 36
9 39
9 47
9 52
9 55
9 56
9 57
9 58
9 22
9 23
9 24
9 26
9 31
9 32
9 38
9 45
9 46
9 59
9 62
9 27
9 28
9 34
9 54
9 65
9 68
9 70
9 71
9 16
9 20
9 29
9 51
9 53
9 66
9 67
9 37
9 40
9 43
9 63
9 72
9 41
9 50
9 73
9 74
9 49
9 33
9 48
9 64
9 69
10 11
10 12
10 13
10 14
10 15
10 16
10 20
10 21
10 28
10 29
10 36
10 39
10 47
10 48
10 49
10 50
10 51
10 52
10 53
10 54
10 22
10 23
10 24
10 26
10 31
10 32
10 38
10 45
10 46
10 56
10 58
10 59
10 62
10 43
10 60
10 70
10 71
10 72
10 17
10 18
10 57
10 67
10 69
10 27
10 44
10 61
10 65
10 68
10 25
10 37
10 40
10 63
10 66
10 30
10 41
10 55
10 73
10 74
10 19
10 64
10 34
10 35
10 42
10 33
11 12
11 13
11 14
11 15
11 21
11 23
11 24
11 27
11 28
11 34
11 38
11 49
11 51
11 59
11 60
11 61
11 62
11 16
11 20
11 22
11 31
11 37
11 39
11 41
11 45
11 48
11 57
11 58
11 65
11 66
11 19
11 33
11 56
11 18
11 25
11 36
11 53
11 54
11 69
11 71
11 63
11 68
11 17
11 73
11 52
11 55
11 64
11 67
11 46
11 50
11 70
11 32
11 35
11 40
11 42
11 43
11 47
11 74
12 13
12 14
12 15
12 21
12 23
12 24
12 27
12 28
12 34
12 38
12 49
12 51
12 59
12 60
12 61
12 62
12 26
12 30
12 31
12 44
12 52
12 53
12 55
12 63
12 64
12 65
12 16
12 17
12 19
12 22
12 32
12 43
12 48
12 58
12 68
12 29
12 47
12 56
12 70
12 71
12 72
12 18
12 20
12 45
12 57
12 67
12 69
12 46
12 73
12 74
12 33
12 25
12 39
13 14
13 15
13 16
13 17
13 18
13 19
13 20
13 21
13 22
13 23
13 24
13 25
13 26
13 27
13 28
13 39
13 44
13 51
13 66
13 69
13 70
13 71
13 47
13 50
13 54
13 57
13 59
13 61
13 65
13 68
13 72
13 36
13 37
13 40
13 43
13 63
13 45
13 58
13 29
13 34
13 38
13 46
13 64
13 60
13 62
13 67
13 31
13 33
13 35
13 41
14 15
14 16
14 20
14 21
14 28
14 29
14 36
14 39
14 47
14 48
14 49
14 50
14 51
14 52
14 53
14 54
14 23
14 26
14 30
14 31
14 44
14 55
14 63
14 64
14 65
14 19
14 24
14 45
14 46
14 59
14 69
14 72
14 73
14 18
14 41
14 58
14 71
14 25
14 33
14 62
14 74
14 17
14 57
14 60
14 67
14 70
15 21
15 23
15 26
15 30
15 31
15 44
15 52
15 53
15 55
15 63
15 64
15 65
15 17
15 19
15 28
15 39
15 51
15 66
15 69
15 70
15 71
15 22
15 29
15 32
15 43
15 47
15 56
15 60
15 62
15 72
15 18
15 25
15 27
15 34
15 54
15 68
15 16
15 20
15 67
15 57
15 36
15 46
15 50
15 59
15 38
15 73
15 35
15 37
15 41
15 49
16 17
16 18
16 19
16 20
16 21
16 22
16 23
16 24
16 25
16 26
16 27
16 28
16 29
16 36
16 39
16 47
16 48
16 49
16 50
16 51
16 52
16 53
16 54
16 31
16 37
16 41
16 45
16 57
16 58
16 61
16 65
16 66
16 33
16 34
16 35
16 43
16 46
16 59
16 67
16 68
16 69
16 32
16 63
16 64
16 72
16 73
16 40
16 42
16 44
16 56
16 62
16 74
16 55
16 71
16 60
16 30
16 70
16 38
17 18
17 19
17 20
17 21
17 22
17 23
17 24
17 25
17 26
17 27
17 28
17 33
17 34
17 36
17 37
17 39
17 40
17 41
17 42
17 43
17 44
17 45
17 46
17 47
17 30
17 35
17 52
17 55
17 56
17 57
17 58
17 32
17 48
17 51
17 53
17 63
17 64
17 68
17 66
17 69
17 70
17 71
17 38
17 60
17 67
17 29
17 31
17 50
17 59
17 73
17 74
17 61
17 65
17 54
17 49
17 72
17 62
18 19
18 20
18 21
18 22
18 23
18 24
18 25
18 26
18 27
18 28
18 29
18 30
18 31
18 32
18 33
18 34
18 35
18 36
18 37
18 38
18 39
18 47
18 52
18 55
18 56
18 57
18 58
18 45
18 60
18 67
18 69
18 54
18 65
18 68
18 70
18 71
18 51
18 53
18 66
18 62
18 40
18 42
18 44
18 46
18 41
18 63
18 64
18 48
18 61
18 74
18 43
18 50
18 73
19 20
19 21
19 22
19 23
19 24
19 25
19 26
19 27
19 28
19 32
19 43
19 48
19 51
19 52
19 53
19 58
19 63
19 64
19 68
19 39
19 44
19 66
19 69
19 70
19 71
19 29
19 45
19 46
19 59
19 65
19 72
19 73
19 33
19 34
19 37
19 56
19 57
19 61
19 62
19 42
19 47
19 67
19 74
19 41
19 31
19 60
19 54
19 30
19 50
19 55
20 21
20 22
20 23
20 24
20 25
20 26
20 27
20 28
20 29
20 30
20 31
20 32
20 33
20 34
20 35
20 36
20 37
20 38
20 39
20 47
20 48
20 49
20 50
20 51
20 52
20 53
20 54
20 41
20 45
20 57
20 58
20 61
20 65
20 66
20 56
20 60
20 67
20 69
20 44
20 59
20 68
20 72
20 55
20 40
20 43
20 63
20 71
20 74
20 46
20 64
20 70
20 73
21 22
21 23
21 24
21 25
21 26
21 27
21 28
21 29
21 36
21 39
21 47
21 48
21 49
21 50
21 51
21 52
21 53
21 54
21 30
21 35
21 55
21 56
21 57
21 58
21 34
21 38
21 59
21 60
21 61
21 62
21 31
21 44
21 63
21 64
21 65
21 37
21 41
21 45
21 66
21 32
21 43
21 70
21 71
21 72
21 33
21 42
21 67
21 74
21 69
21 40
21 46
21 68
21 73
22 23
22 24
22 25
22 26
22 27
22 28
22 31
22 32
22 38
22 45
22 46
22 56
22 58
22 59
22 62
22 37
22 39
22 41
22 48
22 57
22 61
22 65
22 66
22 43
22 51
22 52
22 53
22 63
22 64
22 68
22 29
22 47
22 60
22 70
22 71
22 72
22 33
22 42
22 67
22 74
22 30
22 49
22 54
22 50
22 55
23 24
23 25
23 26
23 27
23 28
23 29
23 30
23 31
23 32
23 33
23 34
23 35
23 36
23 37
23 38
23 49
23 51
23 59
23 60
23 61
23 62
23 44
23 52
23 53
23 55
23 63
23 64
23 65
23 45
23 46
23 56
23 58
23 39
23 41
23 48
23 57
23 66
23 69
23 70
23 71
23 47
23 54
23 68
23 67
23 73
23 50
23 74
23 43
24 25
24 26
24 27
24 28
24 34
24 38
24 49
24 51
24 59
24 60
24 61
24 62
24 31
24 32
24 45
24 46
24 56
24 58
24 29
24 39
24 65
24 69
24 72
24 73
24 33
24 37
24 57
24 66
24 42
24 47
24 48
24 52
24 63
24 67
24 70
24 74
24 43
24 50
24 53
24 55
24 64
24 30
24 71
24 35
24 40
25 26
25 27
25 28
25 29
25 30
25 31
25 32
25 33
25 34
25 35
25 36
25 37
25 38
25 39
25 47
25 52
25 55
25 56
25 57
25 58
25 54
25 65
25 68
25 70
25 71
25 40
25 43
25 63
25 66
25 72
25 53
25 62
25 69
25 44
25 59
25 74
25 41
25 42
25 46
25 67
25 51
25 49
26 27
26 28
26 30
26 31
26 44
26 52
26 53
26 55
26 63
26 64
26 65
26 32
26 38
26 45
26 46
26 56
26 58
26 59
26 62
26 57
26 60
26 67
26 69
26 29
26 34
26 51
26 66
26 36
26 37
26 40
26 43
26 72
26 33
26 47
26 48
26 61
26 71
26 74
26 41
26 70
26 49
26 54
26 39
26 68
26 50
26 73
26 35
27 28
27 34
27 38
27 49
27 51
27 59
27 60
27 61
27 62
27 31
27 37
27 39
27 41
27 45
27 48
27 57
27 58
27 65
27 66
27 29
27 33
27 35
27 43
27 46
27 50
27 54
27 67
27 68
27 69
27 44
27 47
27 72
27 56
27 55
27 70
27 71
27 36
27 40
27 63
27 53
27 42
27 30
27 52
27 64
27 32
28 29
28 36
28 39
28 47
28 48
28 49
28 50
28 51
28 52
28 53
28 54
28 34
28 38
28 59
28 60
28 61
28 62
28 44
28 66
28 69
28 70
28 71
28 45
28 46
28 65
28 72
28 73
28 31
28 55
28 68
28 67
28 40
28 42
28 56
28 64
28 33
28 74
28 30
28 57
29 30
29 31
29 32
29 33
29 34
29 35
29 36
29 37
29 38
29 39
29 47
29 48
29 49
29 50
29 51
29 52
29 53
29 54
29 43
29 45
29 46
29 59
29 67
29 68
29 69
29 56
29 60
29 62
29 70
29 71
29 72
29 65
29 73
29 55
29 66
29 40
29 41
29 42
29 63
29 74
29 64
30 31
30 32
30 33
30 34
30 35
30 36
30 37
30 38
30 39
30 47
30 52
30 55
30 56
30 57
30 58
30 44
30 53
30 63
30 64
30 65
30 40
30 41
30 50
30 59
30 67
30 46
30 71
30 73
30 74
30 49
30 62
30 60
30 61
30 70
30 45
30 51
30 54
30 72
30 42
30 43
30 69
31 32
31 33
31 34
31 35
31 36
31 37
31 38
31 44
31 52
31 53
31 55
31 63
31 64
31 65
31 45
31 46
31 56
31 58
31 59
31 62
31 39
31 41
31 48
31 57
31 61
31 66
31 47
31 54
31 68
31 70
31 71
31 40
31 50
31 67
31 73
31 74
31 49
31 60
31 51
31 72
31 69
31 43
32 33
32 34
32 35
32 36
32 37
32 38
32 45
32 46
32 56
32 58
32 59
32 62
32 43
32 48
32 51
32 52
32 53
32 63
32 64
32 68
32 47
32 60
32 70
32 71
32 72
32 40
32 41
32 50
32 67
32 44
32 61
32 74
32 42
32 65
32 39
32 57
32 69
32 66
32 55
33 34
33 35
33 36
33 37
33 38
33 39
33 40
33 41
33 42
33 43
33 44
33 45
33 46
33 47
33 49
33 50
33 51
33 54
33 59
33 67
33 68
33 69
33 56
33 57
33 61
33 62
33 66
33 48
33 52
33 63
33 70
33 74
33 60
33 71
33 65
33 53
33 73
33 55
33 64
33 72
34 35
34 36
34 37
34 38
34 39
34 40
34 41
34 42
34 43
34 44
34 45
34 46
34 47
34 49
34 51
34 59
34 60
34 61
34 62
34 50
34 54
34 67
34 68
34 69
34 56
34 57
34 66
34 55
34 65
34 70
34 71
34 52
34 53
34 64
34 63
34 72
34 73
35 36
35 37
35 38
35 39
35 47
35 52
35 55
35 56
35 57
35 58
35 43
35 45
35 46
35 49
35 50
35 51
35 54
35 59
35 67
35 68
35 69
35 40
35 42
35 44
35 62
35 74
35 63
35 41
35 65
35 48
35 60
35 66
36 37
36 38
36 39
36 40
36 41
36 42
36 43
36 44
36 45
36 46
36 47
36 48
36 49
36 50
36 51
36 52
36 53
36 54
36 55
36 56
36 57
36 58
36 63
36 66
36 72
36 59
36 67
36 62
36 69
36 71
36 64
36 68
36 70
36 73
36 60
36 74
37 38
37 39
37 40
37 41
37 42
37 43
37 44
37 45
37 46
37 47
37 48
37 57
37 58
37 61
37 65
37 66
37 56
37 62
37 67
37 74
37 59
37 63
37 72
37 51
37 54
37 68
37 69
37 71
37 73
37 70
37 60
37 49
37 55
38 49
38 51
38 59
38 60
38 61
38 62
38 45
38 46
38 56
38 58
38 52
38 57
38 67
38 69
38 40
38 41
38 50
38 53
38 64
38 68
38 70
38 48
38 54
38 71
38 73
38 42
38 63
38 65
38 55
38 66
38 43
38 74
39 40
39 41
39 42
39 43
39 44
39 45
39 46
39 47
39 48
39 49
39 50
39 51
39 52
39 53
39 54
39 55
39 56
39 57
39 58
39 61
39 65
39 66
39 69
39 70
39 71
39 59
39 72
39 73
39 62
39 63
39 74
39 68
40 41
40 42
40 43
40 44
40 45
40 46
40 47
40 56
40 62
40 67
40 74
40 63
40 66
40 72
40 50
40 53
40 59
40 51
40 71
40 64
40 68
40 70
40 48
40 60
40 65
40 69
41 42
41 43
41 44
41 45
41 46
41 47
41 48
41 57
41 58
41 61
41 65
41 66
41 50
41 53
41 59
41 67
41 63
41 64
41 69
41 71
41 60
41 70
41 55
41 74
41 51
41 54
41 62
41 68
41 49
42 43
42 44
42 45
42 46
42 47
42 56
42 62
42 67
42 74
42 48
42 52
42 59
42 63
42 70
42 51
42 66
42 71
42 50
42 53
42 55
42 64
42 65
42 72
43 44
43 45
43 46
43 47
43 49
43 50
43 51
43 54
43 59
43 67
43 68
43 69
43 48
43 52
43 53
43 58
43 63
43 64
43 56
43 60
43 62
43 70
43 71
43 72
43 66
43 55
43 74
44 45
44 46
44 47
44 52
44 53
44 55
44 63
44 64
44 65
44 51
44 66
44 69
44 70
44 71
44 56
44 62
44 67
44 74
44 50
44 54
44 57
44 59
44 61
44 68
44 72
44 58
44 48
44 60
45 46
45 47
45 56
45 58
45 59
45 62
45 48
45 57
45 61
45 65
45 66
45 49
45 50
45 51
45 54
45 67
45 68
45 69
45 72
45 73
45 74
45 52
45 60
45 63
45 70
45 64
45 53
46 47
46 56
46 58
46 59
46 62
46 49
46 50
46 51
46 54
46 67
46 68
46 69
46 65
46 72
46 73
46 74
46 53
46 55
46 63
46 71
46 66
46 64
46 70
46 57
46 60
46 61
47 48
47 49
47 50
47 51
47 52
47 53
47 54
47 55
47 56
47 57
47 58
47 60
47 62
47 70
47 71
47 72
47 67
47 74
47 59
47 61
47 65
47 68
47 69
47 63
47 66
47 64
47 73
48 49
48 50
48 51
48 52
48 53
48 54
48 57
48 58
48 61
48 65
48 66
48 63
48 64
48 68
48 59
48 67
48 70
48 74
48 56
48 60
48 71
48 73
48 55
48 69
49 50
49 51
49 52
49 53
49 54
49 59
49 60
49 61
49 62
49 67
49 68
49 69
49 55
49 56
49 58
49 63
49 72
49 65
50 51
50 52
50 53
50 54
50 59
50 67
50 68
50 69
50 57
50 61
50 65
50 72
50 55
50 56
50 58
50 62
50 63
50 64
50 66
50 60
50 70
50 73
50 74
51 52
51 53
51 54
51 59
51 60
51 61
51 62
51 67
51 68
51 69
51 58
51 63
51 64
51 66
51 70
51 71
51 65
51 72
51 73
51 57
51 55
51 56
51 74
52 53
52 54
52 55
52 56
52 57
52 58
52 63
52 64
52 65
52 68
52 60
52 67
52 69
52 66
52 59
52 70
52 74
52 72
52 73
53 54
53 55
53 63
53 64
53 65
53 58
53 68
53 66
53 67
53 59
53 71
53 73
53 74
53 56
53 57
53 62
53 69
53 72
53 61
53 70
54 59
54 67
54 68
54 69
54 57
54 61
54 65
54 72
54 55
54 70
54 71
54 56
54 62
54 58
54 63
54 66
54 73
55 56
55 57
55 58
55 63
55 64
55 65
55 68
55 70
55 71
55 66
55 67
55 73
55 74
55 62
55 69
56 57
56 58
56 59
56 62
56 60
56 70
56 71
56 72
56 67
56 74
56 69
56 61
56 66
56 63
56 68
57 58
57 61
57 65
57 66
57 60
57 67
57 69
57 59
57 68
57 72
57 62
57 71
57 70
57 63
57 64
58 59
58 62
58 61
58 65
58 66
58 63
58 64
58 68
58 69
58 71
58 70
58 73
58 74
59 60
59 61
59 62
59 67
59 68
59 69
59 65
59 72
59 73
59 66
59 63
59 70
59 74
59 64
59 71
60 61
60 62
60 70
60 71
60 72
60 67
60 69
60 74
60 65
60 66
60 64
61 62
61 65
61 66
61 68
61 69
61 72
61 71
61 74
61 63
61 70
61 64
61 73
62 70
62 71
62 72
62 67
62 74
62 66
62 69
62 63
62 65
62 64
62 68
63 64
63 65
63 68
63 66
63 72
63 71
63 73
63 74
63 67
63 70
63 69
64 65
64 68
64 69
64 71
64 70
64 66
64 67
64 73
64 74
65 66
65 69
65 72
65 73
65 68
65 70
65 71
65 74
65 67
66 69
66 70
66 71
66 67
66 72
66 68
66 73
67 68
67 69
67 74
67 70
67 71
67 72
67 73
68 69
68 72
68 70
68 71
69 70
69 71
69 72
69 73
69 74
70 71
70 72
70 74
70 73
71 72
71 73
71 74
72 73
73 74
